CMPL model generation - running

CMPL version: 1.11.0
Authors: Thomas Schleiff, Mike Steglich
Distributed under the GPLv3 

create model instance ...
write model instance ...
CMPL model generation - finished

Solver - running


Welcome to IBM(R) ILOG(R) CPLEX(R) Interactive Optimizer 12.7.1.0
  with Simplex, Mixed Integer & Barrier Optimizers
5725-A06 5725-A29 5724-Y48 5724-Y49 5724-Y54 5724-Y55 5655-Y21
Copyright IBM Corp. 1988, 2017.  All Rights Reserved.

Type 'help' for a list of available commands.
Type 'help' followed by a command name for more
information on commands.

CPLEX> Specified objective sense: MINIMIZE
Selected objective  name:  line[1]
Selected RHS        name:  RHS
Selected bound      name:  BOUND
Problem '/tmp/cmpl.T24320.mps' read.
Read time = 0.06 sec. (8.17 ticks)
CPLEX> CPXPARAM_Read_APIEncoding                        "UTF-8"
Tried aggregator 3 times.
MIP Presolve eliminated 19180 rows and 30599 columns.
MIP Presolve modified 340 coefficients.
Aggregator did 664 substitutions.
Reduced MIP has 2511 rows, 3330 columns, and 9710 nonzeros.
Reduced MIP has 3162 binaries, 0 generals, 0 SOSs, and 0 indicators.
Presolve time = 0.06 sec. (41.98 ticks)
Found incumbent of value 1023.298829 after 0.11 sec. (64.85 ticks)
Probing fixed 11 vars, tightened 0 bounds.
Probing time = 0.01 sec. (4.34 ticks)
Tried aggregator 1 time.
MIP Presolve eliminated 0 rows and 11 columns.
MIP Presolve modified 52 coefficients.
Reduced MIP has 2511 rows, 3319 columns, and 9688 nonzeros.
Reduced MIP has 3319 binaries, 0 generals, 0 SOSs, and 0 indicators.
Presolve time = 0.01 sec. (8.22 ticks)
Probing time = 0.01 sec. (2.69 ticks)
Clique table members: 5918.
MIP emphasis: balance optimality and feasibility.
MIP search method: dynamic search.
Parallel mode: none, using 1 thread.
Root relaxation solution time = 0.01 sec. (5.07 ticks)

        Nodes                                         Cuts/
   Node  Left     Objective  IInf  Best Integer    Best Bound    ItCnt     Gap

*     0+    0                         1023.2988      -26.2055           102.56%
      0     0      232.8113     8     1023.2988      232.8113      183   77.25%
*     0+    0                          233.0399      232.8113             0.10%
*     0     0      integral     0      233.0072      Cuts: 10      191    0.00%
      0     0        cutoff            233.0072      233.0072      191    0.00%
Elapsed time = 0.20 sec. (103.14 ticks, tree = 0.01 MB, solutions = 3)

GUB cover cuts applied:  1
Clique cuts applied:  1
Cover cuts applied:  5
Gomory fractional cuts applied:  3

Root node processing (before b&c):
  Real time             =    0.21 sec. (104.62 ticks)
Sequential b&c:
  Real time             =    0.00 sec. (0.00 ticks)
                          ------------
Total (root+branch&cut) =    0.21 sec. (104.62 ticks)

Solution pool: 3 solutions saved.

MIP - Integer optimal solution:  Objective =  2.3300724100e+02
Solution time =    0.21 sec.  Iterations = 191  Nodes = 0
Deterministic time = 104.72 ticks  (504.58 ticks/sec)

CPLEX> Incumbent solution written to file '/tmp/cmpl.T24320.gsol'.
CPLEX> 
CMPL: Time used for model generation: 0 seconds
CMPL: Time used for solving the model: 1 seconds


Solution written to ASCII file: results/output_generated_conf_0.6/2016-09-05-4/fair-nonlinear.sol

Solver - finished
